Set parameter WLSAccessID
Set parameter WLSSecret
Set parameter LicenseID to value 2604445
Academic license 2604445 - for non-commercial use only - registered to an___@um.edu.mt
Set parameter Seed to value 23
Set parameter TimeLimit to value 14400
Gurobi Optimizer version 12.0.2 build v12.0.2rc0 (linux64 - "Ubuntu 22.04.5 LTS")

CPU model: Intel(R) Core(TM) i5-10400 CPU @ 2.90GHz, instruction set [SSE2|AVX|AVX2]
Thread count: 6 physical cores, 12 logical processors, using up to 12 threads

Non-default parameters:
TimeLimit  14400
Seed  23

Academic license 2604445 - for non-commercial use only - registered to an___@um.edu.mt
Optimize a model with 2444929 rows, 39766 columns and 5005435 nonzeros
Model fingerprint: 0xf1f2319f
Variable types: 0 continuous, 39766 integer (30829 binary)
Coefficient statistics:
  Matrix range     [1e+00, 6e+01]
  Objective range  [7e-08, 2e-02]
  Bounds range     [1e+00, 3e+02]
  RHS range        [1e+00, 6e+01]
Presolve removed 17977 rows and 13628 columns (presolve time = 5s)...
Presolve removed 18057 rows and 13734 columns (presolve time = 11s)...
Presolve removed 18057 rows and 13734 columns
Presolve time: 13.02s
Presolved: 2426872 rows, 26032 columns, 4937770 nonzeros
Variable types: 0 continuous, 26032 integer (18102 binary)
Deterministic concurrent LP optimizer: primal simplex, dual simplex, and barrier
Showing barrier log only...

Root barrier log...

Ordering time: 0.01s

Barrier statistics:
 Dense cols : 4
 Free vars  : 157
 AA' NZ     : 4.994e+04
 Factor NZ  : 6.665e+04 (roughly 40 MB of memory)
 Factor Ops : 1.147e+07 (less than 1 second per iteration)
 Threads    : 3

                  Objective                Residual
Iter       Primal          Dual         Primal    Dual     Compl     Time
   0  -6.82372685e+05  5.00000000e+00  1.72e+00 5.60e+01  1.95e+01    31s
   1  -2.80191900e+05  1.42158748e+01  4.87e-04 2.02e+01  4.09e+00    31s

Barrier performed 1 iterations in 30.73 seconds (22.79 work units)
Barrier solve interrupted - model solved by another algorithm

Concurrent spin time: 0.11s (can be avoided by choosing Method=3)

Solved with dual simplex

Root simplex log...

Iteration    Objective       Primal Inf.    Dual Inf.      Time
    1084    3.2688535e-02   0.000000e+00   0.000000e+00     31s

Root simplex log...

Iteration    Objective       Primal Inf.    Dual Inf.      Time
    1084    3.2688535e-02   0.000000e+00   0.000000e+00     31s

Use crossover to convert LP symmetric solution to basic solution...

Root crossover log...

    8960 DPushes remaining with DInf 0.0000000e+00                33s
    1523 DPushes remaining with DInf 0.0000000e+00                35s
       0 DPushes remaining with DInf 0.0000000e+00                37s

    3387 PPushes remaining with PInf 0.0000000e+00                37s
    1084 PPushes remaining with PInf 0.0000000e+00                40s
       0 PPushes remaining with PInf 0.0000000e+00                42s

  Push phase complete: Pinf 0.0000000e+00, Dinf 9.5338852e-19     42s


Root simplex log...

Iteration    Objective       Primal Inf.    Dual Inf.      Time
   12374    3.2688535e-02   0.000000e+00   0.000000e+00     44s
   12374    3.2688535e-02   0.000000e+00   0.000000e+00     44s

Root relaxation: objective 3.268853e-02, 12374 iterations, 22.02 seconds (4.86 work units)
Total elapsed time = 50.06s (DegenMoves)
Total elapsed time = 57.10s (DegenMoves)
Total elapsed time = 62.94s (DegenMoves)
Total elapsed time = 67.69s (DegenMoves)

    Nodes    |    Current Node    |     Objective Bounds      |     Work
 Expl Unexpl |  Obj  Depth IntInf | Incumbent    BestBd   Gap | It/Node Time

     0     0    0.03269    0 1231          -    0.03269      -     -   75s
     0     0    0.03291    0 2456          -    0.03291      -     -  117s
     0     0    0.03291    0 2277          -    0.03291      -     -  134s
     0     0    0.03295    0 2223          -    0.03295      -     -  167s
     0     0    0.03295    0 2104          -    0.03295      -     -  182s
     0     0    0.03306    0 2975          -    0.03306      -     -  249s
     0     0    0.03306    0 2782          -    0.03306      -     -  267s
     0     0    0.03314    0 3842          -    0.03314      -     -  385s
     0     0    0.03314    0 3562          -    0.03314      -     -  436s
     0     0    0.03318    0 5317          -    0.03318      -     -  560s
     0     0    0.03318    0 4578          -    0.03318      -     -  595s
     0     0    0.03323    0 5732          -    0.03323      -     -  766s
     0     0    0.03325    0 4438          -    0.03325      -     -  794s
     0     0    0.03330    0 4122          -    0.03330      -     -  935s
     0     0    0.03330    0 3787          -    0.03330      -     -  980s
     0     0    0.03338    0 5917          -    0.03338      -     - 1167s
     0     0    0.03339    0 3768          -    0.03339      -     - 1203s
     0     0    0.03342    0 6323          -    0.03342      -     - 1447s
     0     0    0.03343    0 3737          -    0.03343      -     - 1525s
     0     0    0.03348    0 6230          -    0.03348      -     - 1799s
     0     0    0.03348    0 5850          -    0.03348      -     - 1887s
     0     0    0.03350    0 5854          -    0.03350      -     - 2128s
     0     0    0.03352    0 4628          -    0.03352      -     - 2196s
     0     0    0.03354    0 5005          -    0.03354      -     - 2394s
     0     0    0.03355    0 5487          -    0.03355      -     - 2460s
     0     0    0.03355    0 4615          -    0.03355      -     - 2647s
     0     0    0.03355    0 6111          -    0.03355      -     - 2812s
     0     0    0.03356    0 5657          -    0.03356      -     - 3035s
     0     0    0.03358    0 3787          -    0.03358      -     - 3107s
     0     0    0.03358    0 6162          -    0.03358      -     - 3311s
     0     0    0.03358    0 6436          -    0.03358      -     - 3452s
     0     0    0.03358    0 4671          -    0.03358      -     - 3809s
     0     0    0.03358    0 5493          -    0.03358      -     - 3989s
     0     0    0.03361    0 4121          -    0.03361      -     - 4291s
     0     0    0.03361    0 4033          -    0.03361      -     - 4420s
     0     0    0.03361    0 4715          -    0.03361      -     - 4644s
     0     0    0.03361    0 6825          -    0.03361      -     - 4943s
     0     0    0.03362    0 4913          -    0.03362      -     - 5384s
     0     0    0.03362    0 6070          -    0.03362      -     - 5551s
     0     0    0.03362    0 7133          -    0.03362      -     - 5966s
     0     0    0.03363    0 5759          -    0.03363      -     - 6101s
     0     0    0.03364    0 6105          -    0.03364      -     - 6350s
     0     0    0.03364    0 5876          -    0.03364      -     - 6547s
     0     0    0.03364    0 6028          -    0.03364      -     - 6961s
     0     0    0.03364    0 6602          -    0.03364      -     - 7157s
     0     0    0.03364    0 7639          -    0.03364      -     - 7584s
     0     0    0.03364    0 7632          -    0.03364      -     - 7673s
H    0     0                       5.0046741    0.03364  99.3%     - 7847s
H    0     0                       4.1134354    0.03364  99.2%     - 7847s
H    0     0                       3.7358391    0.03364  99.1%     - 7853s
H    0     0                       3.7207020    0.03364  99.1%     - 7854s
     0     2    0.03364    0 7619    3.72070    0.03364  99.1%     - 7877s
     1     3    0.03364    1 5062    3.72070    0.03364  99.1%  1431 7912s
     2     4    0.12436    1 6451    3.72070    0.03364  99.1% 33567 8313s
     3     5    0.15465    2 7305    3.72070    0.03364  99.1% 45037 8872s

Cutting planes:
  Gomory: 119
  Cover: 2196
  Implied bound: 3093
  Clique: 5341
  MIR: 3293
  StrongCG: 120
  Zero half: 2812
  RLT: 808
  Relax-and-lift: 3197

Explored 4 nodes (809994 simplex iterations) in 14401.89 seconds (11810.80 work units)
Thread count was 12 (of 12 available processors)

Solution count 4: 3.7207 3.73584 4.11344 5.00467 

Time limit reached
Best objective 3.720702038223e+00, best bound 3.364495804895e-02, gap 99.0957%
Objective Function at this solution: [[18, 19, 1], [18, 19, 2], [18, 19, 3], [18, 19, 4], [18, 19, 5], [18, 19, 6], [18, 19, 7], [18, 19, 8], [18, 19, 9], [18, 19, 10], [18, 19, 11], [18, 19, 12], [18, 19, 13], [18, 19, 14], [18, 19, 15], [18, 19, 16], [18, 19, 17], [18, 19, 18], [18, 19, 19], [18, 19, 20], [18, 19, 21], [18, 19, 22], [18, 19, 23], [18, 19, 24], [18, 127, 26], [19, 20, 1], [19, 20, 2], [19, 20, 3], [19, 20, 4], [19, 20, 5], [19, 20, 6], [19, 20, 7], [19, 20, 8], [19, 20, 9], [19, 20, 10], [19, 20, 11], [19, 20, 12], [19, 20, 13], [19, 20, 14], [19, 20, 15], [19, 20, 16], [19, 20, 17], [19, 20, 18], [19, 20, 19], [19, 20, 20], [19, 20, 21], [19, 20, 22], [19, 20, 23], [19, 20, 24], [19, 20, 25], [19, 20, 26], [20, 128, 17], [20, 128, 25], [20, 219, 1], [20, 219, 2], [20, 219, 3], [20, 219, 4], [20, 219, 5], [20, 219, 6], [20, 219, 7], [20, 219, 8], [20, 219, 9], [20, 219, 10], [20, 219, 11], [20, 219, 12], [20, 219, 13], [20, 219, 14], [20, 219, 15], [20, 219, 16], [20, 219, 18], [20, 219, 19], [20, 219, 20], [20, 219, 21], [20, 219, 22], [20, 219, 23], [20, 219, 24], [20, 219, 26], [38, 19, 25], [106, 107, 26], [107, 108, 26], [108, 109, 26], [109, 110, 26], [110, 111, 26], [111, 112, 26], [112, 113, 26], [113, 141, 26], [126, 259, 26], [127, 19, 26], [128, 129, 17], [128, 129, 25], [128, 129, 26], [129, 130, 17], [129, 130, 25], [129, 130, 26], [130, 137, 26], [130, 146, 17], [130, 146, 25], [141, 142, 26], [142, 143, 26], [143, 144, 26], [144, 145, 26], [145, 126, 26], [146, 147, 17], [146, 147, 25], [147, 148, 17], [147, 148, 25], [148, 149, 17], [148, 149, 25], [149, 150, 17], [149, 150, 25], [150, 151, 17], [150, 168, 25], [151, 168, 17], [168, 169, 17], [168, 169, 25], [169, 170, 17], [169, 170, 25], [170, 171, 17], [170, 171, 25], [171, 172, 17], [171, 172, 25], [172, 173, 17], [172, 173, 25], [173, 174, 17], [173, 174, 25], [174, 175, 17], [174, 175, 25], [175, 176, 17], [175, 176, 25], [176, 177, 17], [176, 177, 25], [177, 178, 17], [177, 178, 25], [178, 179, 17], [178, 179, 25], [179, 180, 17], [179, 180, 25], [180, 181, 17], [180, 181, 25], [181, 182, 17], [181, 182, 25], [182, 183, 17], [182, 183, 25], [208, 209, 1], [208, 209, 2], [208, 209, 3], [208, 209, 4], [208, 209, 5], [208, 209, 6], [208, 209, 7], [208, 209, 8], [208, 209, 9], [208, 209, 10], [208, 209, 11], [208, 209, 12], [208, 209, 13], [208, 209, 14], [208, 209, 15], [208, 209, 16], [208, 209, 18], [208, 209, 19], [208, 209, 20], [208, 209, 21], [208, 209, 22], [208, 209, 23], [208, 209, 24], [208, 323, 25], [209, 208, 25], [219, 38, 25], [219, 128, 26], [219, 220, 1], [219, 220, 2], [219, 220, 3], [219, 220, 4], [219, 220, 5], [219, 220, 6], [219, 220, 7], [219, 220, 8], [219, 220, 9], [219, 220, 10], [219, 220, 11], [219, 220, 12], [219, 220, 13], [219, 220, 14], [219, 220, 15], [219, 220, 16], [219, 220, 18], [219, 220, 19], [219, 220, 20], [219, 220, 21], [219, 220, 22], [219, 220, 23], [219, 220, 24], [220, 219, 25], [220, 221, 1], [220, 221, 2], [220, 221, 3], [220, 221, 4], [220, 221, 5], [220, 221, 6], [220, 221, 7], [220, 221, 8], [220, 221, 9], [220, 221, 10], [220, 221, 11], [220, 221, 12], [220, 221, 13], [220, 221, 14], [220, 221, 15], [220, 221, 16], [220, 221, 18], [220, 221, 19], [220, 221, 20], [220, 221, 21], [220, 221, 22], [220, 221, 23], [220, 221, 24], [221, 220, 25], [221, 222, 1], [221, 222, 2], [221, 222, 3], [221, 222, 4], [221, 222, 5], [221, 222, 6], [221, 222, 7], [221, 222, 8], [221, 222, 9], [221, 222, 10], [221, 222, 11], [221, 222, 12], [221, 222, 13], [221, 222, 14], [221, 222, 15], [221, 222, 16], [221, 222, 18], [221, 222, 19], [221, 222, 20], [221, 222, 21], [221, 222, 22], [221, 222, 23], [221, 222, 24], [222, 221, 25], [222, 323, 1], [222, 323, 2], [222, 323, 3], [222, 323, 4], [222, 323, 5], [222, 323, 6], [222, 323, 7], [222, 323, 8], [222, 323, 9], [222, 323, 10], [222, 323, 11], [222, 323, 12], [222, 323, 13], [222, 323, 14], [222, 323, 15], [222, 323, 16], [222, 323, 18], [222, 323, 19], [222, 323, 20], [222, 323, 21], [222, 323, 22], [222, 323, 23], [222, 323, 24], [239, 106, 26], [240, 275, 26], [249, 280, 26], [250, 249, 26], [251, 250, 26], [254, 257, 1], [254, 257, 2], [254, 257, 3], [254, 257, 4], [254, 257, 5], [254, 257, 6], [254, 257, 7], [254, 257, 8], [254, 257, 9], [254, 257, 10], [254, 257, 11], [254, 257, 12], [254, 257, 13], [254, 257, 14], [254, 257, 15], [254, 257, 16], [254, 257, 17], [254, 257, 18], [254, 257, 19], [254, 257, 20], [254, 257, 21], [254, 257, 22], [254, 257, 23], [254, 257, 24], [257, 258, 1], [257, 258, 2], [257, 258, 3], [257, 258, 4], [257, 258, 5], [257, 258, 6], [257, 258, 7], [257, 258, 8], [257, 258, 9], [257, 258, 10], [257, 258, 11], [257, 258, 12], [257, 258, 13], [257, 258, 14], [257, 258, 15], [257, 258, 16], [257, 258, 17], [257, 258, 18], [257, 258, 19], [257, 258, 20], [257, 258, 21], [257, 258, 22], [257, 258, 23], [257, 258, 24], [258, 259, 1], [258, 259, 2], [258, 259, 3], [258, 259, 4], [258, 259, 5], [258, 259, 6], [258, 259, 7], [258, 259, 8], [258, 259, 9], [258, 259, 10], [258, 259, 11], [258, 259, 12], [258, 259, 13], [258, 259, 14], [258, 259, 15], [258, 259, 16], [258, 259, 17], [258, 259, 18], [258, 259, 19], [258, 259, 20], [258, 259, 21], [258, 259, 22], [258, 259, 23], [258, 259, 24], [259, 317, 1], [259, 317, 2], [259, 317, 3], [259, 317, 4], [259, 317, 5], [259, 317, 6], [259, 317, 7], [259, 317, 8], [259, 317, 9], [259, 317, 10], [259, 317, 11], [259, 317, 12], [259, 317, 13], [259, 317, 14], [259, 317, 15], [259, 317, 16], [259, 317, 17], [259, 317, 18], [259, 317, 19], [259, 317, 20], [259, 317, 21], [259, 317, 22], [259, 317, 23], [259, 317, 24], [259, 317, 26], [273, 274, 26], [274, 240, 26], [275, 239, 26], [277, 273, 26], [278, 277, 26], [279, 278, 26], [280, 300, 26], [281, 251, 26], [282, 299, 1], [282, 299, 2], [282, 299, 3], [282, 299, 4], [282, 299, 5], [282, 299, 6], [282, 299, 7], [282, 299, 8], [282, 299, 9], [282, 299, 10], [282, 299, 11], [282, 299, 12], [282, 299, 13], [282, 299, 14], [282, 299, 15], [282, 299, 16], [282, 299, 17], [282, 299, 18], [282, 299, 19], [282, 299, 20], [282, 299, 21], [282, 299, 22], [282, 299, 23], [282, 299, 24], [282, 299, 26], [288, 289, 1], [288, 289, 2], [288, 289, 3], [288, 289, 4], [288, 289, 5], [288, 289, 6], [288, 289, 7], [288, 289, 8], [288, 289, 9], [288, 289, 10], [288, 289, 11], [288, 289, 12], [288, 289, 13], [288, 289, 14], [288, 289, 15], [288, 289, 16], [288, 289, 17], [288, 289, 18], [288, 289, 19], [288, 289, 20], [288, 289, 21], [288, 289, 22], [288, 289, 23], [288, 289, 24], [288, 289, 26], [289, 290, 1], [289, 290, 2], [289, 290, 3], [289, 290, 4], [289, 290, 5], [289, 290, 6], [289, 290, 7], [289, 290, 8], [289, 290, 9], [289, 290, 10], [289, 290, 11], [289, 290, 12], [289, 290, 13], [289, 290, 14], [289, 290, 15], [289, 290, 16], [289, 290, 17], [289, 290, 18], [289, 290, 19], [289, 290, 20], [289, 290, 21], [289, 290, 22], [289, 290, 23], [289, 290, 24], [289, 290, 26], [290, 291, 16], [290, 294, 1], [290, 294, 2], [290, 294, 3], [290, 294, 4], [290, 294, 5], [290, 294, 6], [290, 294, 7], [290, 294, 8], [290, 294, 9], [290, 294, 10], [290, 294, 11], [290, 294, 12], [290, 294, 13], [290, 294, 14], [290, 294, 15], [290, 294, 17], [290, 294, 18], [290, 294, 19], [290, 294, 20], [290, 294, 21], [290, 294, 22], [290, 294, 23], [290, 294, 24], [290, 294, 26], [291, 292, 16], [292, 293, 16], [293, 294, 16], [294, 295, 1], [294, 295, 2], [294, 295, 3], [294, 295, 4], [294, 295, 5], [294, 295, 6], [294, 295, 7], [294, 295, 8], [294, 295, 9], [294, 295, 10], [294, 295, 11], [294, 295, 12], [294, 295, 13], [294, 295, 14], [294, 295, 15], [294, 295, 16], [294, 295, 17], [294, 295, 18], [294, 295, 19], [294, 295, 20], [294, 295, 21], [294, 295, 22], [294, 295, 23], [294, 295, 24], [294, 295, 26], [295, 296, 1], [295, 296, 2], [295, 296, 3], [295, 296, 4], [295, 296, 5], [295, 296, 6], [295, 296, 7], [295, 296, 8], [295, 296, 9], [295, 296, 10], [295, 296, 11], [295, 296, 12], [295, 296, 13], [295, 296, 14], [295, 296, 15], [295, 296, 16], [295, 296, 17], [295, 296, 18], [295, 296, 19], [295, 296, 20], [295, 296, 21], [295, 296, 22], [295, 296, 23], [295, 296, 24], [295, 296, 26], [296, 297, 1], [296, 297, 2], [296, 297, 3], [296, 297, 4], [296, 297, 5], [296, 297, 6], [296, 297, 7], [296, 297, 8], [296, 297, 9], [296, 297, 10], [296, 297, 11], [296, 297, 12], [296, 297, 13], [296, 297, 14], [296, 297, 15], [296, 297, 16], [296, 297, 17], [296, 297, 18], [296, 297, 19], [296, 297, 20], [296, 297, 21], [296, 297, 22], [296, 297, 23], [296, 297, 24], [296, 297, 26], [297, 298, 1], [297, 298, 2], [297, 298, 3], [297, 298, 4], [297, 298, 5], [297, 298, 6], [297, 298, 7], [297, 298, 8], [297, 298, 9], [297, 298, 10], [297, 298, 11], [297, 298, 12], [297, 298, 13], [297, 298, 14], [297, 298, 15], [297, 298, 16], [297, 298, 17], [297, 298, 18], [297, 298, 19], [297, 298, 20], [297, 298, 21], [297, 298, 22], [297, 298, 23], [297, 298, 24], [297, 298, 26], [298, 282, 1], [298, 282, 2], [298, 282, 3], [298, 282, 4], [298, 282, 5], [298, 282, 6], [298, 282, 7], [298, 282, 8], [298, 282, 9], [298, 282, 10], [298, 282, 11], [298, 282, 12], [298, 282, 13], [298, 282, 14], [298, 282, 15], [298, 282, 16], [298, 282, 17], [298, 282, 18], [298, 282, 19], [298, 282, 20], [298, 282, 21], [298, 282, 22], [298, 282, 23], [298, 282, 24], [298, 282, 26], [299, 281, 26], [299, 316, 1], [299, 316, 2], [299, 316, 3], [299, 316, 4], [299, 316, 5], [299, 316, 6], [299, 316, 7], [299, 316, 8], [299, 316, 9], [299, 316, 10], [299, 316, 11], [299, 316, 12], [299, 316, 13], [299, 316, 14], [299, 316, 15], [299, 316, 16], [299, 316, 17], [299, 316, 18], [299, 316, 19], [299, 316, 20], [299, 316, 21], [299, 316, 22], [299, 316, 23], [299, 316, 24], [300, 279, 26], [316, 254, 1], [316, 254, 2], [316, 254, 3], [316, 254, 4], [316, 254, 5], [316, 254, 6], [316, 254, 7], [316, 254, 8], [316, 254, 9], [316, 254, 10], [316, 254, 11], [316, 254, 12], [316, 254, 13], [316, 254, 14], [316, 254, 15], [316, 254, 16], [316, 254, 17], [316, 254, 18], [316, 254, 19], [316, 254, 20], [316, 254, 21], [316, 254, 22], [316, 254, 23], [316, 254, 24], [317, 18, 1], [317, 18, 2], [317, 18, 3], [317, 18, 4], [317, 18, 5], [317, 18, 6], [317, 18, 7], [317, 18, 8], [317, 18, 9], [317, 18, 10], [317, 18, 11], [317, 18, 12], [317, 18, 13], [317, 18, 14], [317, 18, 15], [317, 18, 16], [317, 18, 17], [317, 18, 18], [317, 18, 19], [317, 18, 20], [317, 18, 21], [317, 18, 22], [317, 18, 23], [317, 18, 24], [317, 18, 26], [323, 208, 1], [323, 208, 2], [323, 208, 3], [323, 208, 4], [323, 208, 5], [323, 208, 6], [323, 208, 7], [323, 208, 8], [323, 208, 9], [323, 208, 10], [323, 208, 11], [323, 208, 12], [323, 208, 13], [323, 208, 14], [323, 208, 15], [323, 208, 16], [323, 208, 18], [323, 208, 19], [323, 208, 20], [323, 208, 21], [323, 208, 22], [323, 208, 23], [323, 208, 24], [323, 222, 25]]
List of All Routes is {'Route_1': [288, 289, 290, 294, 295, 296, 297, 298, 282, 299, 316, 254, 257, 258, 259, 317, 18, 19, 20, 219, 220, 221, 222, 323, 208, 209], 'Route_1_1': [209, 208, 323, 222, 221, 220, 219, 20, 19, 18, 317, 259, 258, 257, 254, 316, 299, 282, 298, 297, 296, 295, 294, 290, 289, 288], 'Route_2': [288, 289, 290, 294, 295, 296, 297, 298, 282, 299, 316, 254, 257, 258, 259, 317, 18, 19, 20, 219, 220, 221, 222, 323, 208, 209], 'Route_2_1': [209, 208, 323, 222, 221, 220, 219, 20, 19, 18, 317, 259, 258, 257, 254, 316, 299, 282, 298, 297, 296, 295, 294, 290, 289, 288], 'Route_3': [288, 289, 290, 294, 295, 296, 297, 298, 282, 299, 316, 254, 257, 258, 259, 317, 18, 19, 20, 219, 220, 221, 222, 323, 208, 209], 'Route_3_1': [209, 208, 323, 222, 221, 220, 219, 20, 19, 18, 317, 259, 258, 257, 254, 316, 299, 282, 298, 297, 296, 295, 294, 290, 289, 288], 'Route_4': [288, 289, 290, 294, 295, 296, 297, 298, 282, 299, 316, 254, 257, 258, 259, 317, 18, 19, 20, 219, 220, 221, 222, 323, 208, 209], 'Route_4_1': [209, 208, 323, 222, 221, 220, 219, 20, 19, 18, 317, 259, 258, 257, 254, 316, 299, 282, 298, 297, 296, 295, 294, 290, 289, 288], 'Route_5': [288, 289, 290, 294, 295, 296, 297, 298, 282, 299, 316, 254, 257, 258, 259, 317, 18, 19, 20, 219, 220, 221, 222, 323, 208, 209], 'Route_5_1': [209, 208, 323, 222, 221, 220, 219, 20, 19, 18, 317, 259, 258, 257, 254, 316, 299, 282, 298, 297, 296, 295, 294, 290, 289, 288], 'Route_6': [288, 289, 290, 294, 295, 296, 297, 298, 282, 299, 316, 254, 257, 258, 259, 317, 18, 19, 20, 219, 220, 221, 222, 323, 208, 209], 'Route_6_1': [209, 208, 323, 222, 221, 220, 219, 20, 19, 18, 317, 259, 258, 257, 254, 316, 299, 282, 298, 297, 296, 295, 294, 290, 289, 288], 'Route_7': [288, 289, 290, 294, 295, 296, 297, 298, 282, 299, 316, 254, 257, 258, 259, 317, 18, 19, 20, 219, 220, 221, 222, 323, 208, 209], 'Route_7_1': [209, 208, 323, 222, 221, 220, 219, 20, 19, 18, 317, 259, 258, 257, 254, 316, 299, 282, 298, 297, 296, 295, 294, 290, 289, 288], 'Route_8': [288, 289, 290, 294, 295, 296, 297, 298, 282, 299, 316, 254, 257, 258, 259, 317, 18, 19, 20, 219, 220, 221, 222, 323, 208, 209], 'Route_8_1': [209, 208, 323, 222, 221, 220, 219, 20, 19, 18, 317, 259, 258, 257, 254, 316, 299, 282, 298, 297, 296, 295, 294, 290, 289, 288], 'Route_9': [288, 289, 290, 294, 295, 296, 297, 298, 282, 299, 316, 254, 257, 258, 259, 317, 18, 19, 20, 219, 220, 221, 222, 323, 208, 209], 'Route_9_1': [209, 208, 323, 222, 221, 220, 219, 20, 19, 18, 317, 259, 258, 257, 254, 316, 299, 282, 298, 297, 296, 295, 294, 290, 289, 288], 'Route_10': [288, 289, 290, 294, 295, 296, 297, 298, 282, 299, 316, 254, 257, 258, 259, 317, 18, 19, 20, 219, 220, 221, 222, 323, 208, 209], 'Route_10_1': [209, 208, 323, 222, 221, 220, 219, 20, 19, 18, 317, 259, 258, 257, 254, 316, 299, 282, 298, 297, 296, 295, 294, 290, 289, 288], 'Route_11': [288, 289, 290, 294, 295, 296, 297, 298, 282, 299, 316, 254, 257, 258, 259, 317, 18, 19, 20, 219, 220, 221, 222, 323, 208, 209], 'Route_11_1': [209, 208, 323, 222, 221, 220, 219, 20, 19, 18, 317, 259, 258, 257, 254, 316, 299, 282, 298, 297, 296, 295, 294, 290, 289, 288], 'Route_12': [288, 289, 290, 294, 295, 296, 297, 298, 282, 299, 316, 254, 257, 258, 259, 317, 18, 19, 20, 219, 220, 221, 222, 323, 208, 209], 'Route_12_1': [209, 208, 323, 222, 221, 220, 219, 20, 19, 18, 317, 259, 258, 257, 254, 316, 299, 282, 298, 297, 296, 295, 294, 290, 289, 288], 'Route_13': [288, 289, 290, 294, 295, 296, 297, 298, 282, 299, 316, 254, 257, 258, 259, 317, 18, 19, 20, 219, 220, 221, 222, 323, 208, 209], 'Route_13_1': [209, 208, 323, 222, 221, 220, 219, 20, 19, 18, 317, 259, 258, 257, 254, 316, 299, 282, 298, 297, 296, 295, 294, 290, 289, 288], 'Route_14': [288, 289, 290, 294, 295, 296, 297, 298, 282, 299, 316, 254, 257, 258, 259, 317, 18, 19, 20, 219, 220, 221, 222, 323, 208, 209], 'Route_14_1': [209, 208, 323, 222, 221, 220, 219, 20, 19, 18, 317, 259, 258, 257, 254, 316, 299, 282, 298, 297, 296, 295, 294, 290, 289, 288], 'Route_15': [288, 289, 290, 294, 295, 296, 297, 298, 282, 299, 316, 254, 257, 258, 259, 317, 18, 19, 20, 219, 220, 221, 222, 323, 208, 209], 'Route_15_1': [209, 208, 323, 222, 221, 220, 219, 20, 19, 18, 317, 259, 258, 257, 254, 316, 299, 282, 298, 297, 296, 295, 294, 290, 289, 288], 'Route_16': [288, 289, 290, 291, 292, 293, 294, 295, 296, 297, 298, 282, 299, 316, 254, 257, 258, 259, 317, 18, 19, 20, 219, 220, 221, 222, 323, 208, 209], 'Route_16_1': [209, 208, 323, 222, 221, 220, 219, 20, 19, 18, 317, 259, 258, 257, 254, 316, 299, 282, 298, 297, 296, 295, 294, 293, 292, 291, 290, 289, 288], 'Route_17': [288, 289, 290, 294, 295, 296, 297, 298, 282, 299, 316, 254, 257, 258, 259, 317, 18, 19, 20, 128, 129, 130, 146, 147, 148, 149, 150, 151, 168, 169, 170, 171, 172, 173, 174, 175, 176, 177, 178, 179, 180, 181, 182, 183], 'Route_17_1': [183, 182, 181, 180, 179, 178, 177, 176, 175, 174, 173, 172, 171, 170, 169, 168, 151, 150, 149, 148, 147, 146, 130, 129, 128, 20, 19, 18, 317, 259, 258, 257, 254, 316, 299, 282, 298, 297, 296, 295, 294, 290, 289, 288], 'Route_18': [288, 289, 290, 294, 295, 296, 297, 298, 282, 299, 316, 254, 257, 258, 259, 317, 18, 19, 20, 219, 220, 221, 222, 323, 208, 209], 'Route_18_1': [209, 208, 323, 222, 221, 220, 219, 20, 19, 18, 317, 259, 258, 257, 254, 316, 299, 282, 298, 297, 296, 295, 294, 290, 289, 288], 'Route_19': [288, 289, 290, 294, 295, 296, 297, 298, 282, 299, 316, 254, 257, 258, 259, 317, 18, 19, 20, 219, 220, 221, 222, 323, 208, 209], 'Route_19_1': [209, 208, 323, 222, 221, 220, 219, 20, 19, 18, 317, 259, 258, 257, 254, 316, 299, 282, 298, 297, 296, 295, 294, 290, 289, 288], 'Route_20': [288, 289, 290, 294, 295, 296, 297, 298, 282, 299, 316, 254, 257, 258, 259, 317, 18, 19, 20, 219, 220, 221, 222, 323, 208, 209], 'Route_20_1': [209, 208, 323, 222, 221, 220, 219, 20, 19, 18, 317, 259, 258, 257, 254, 316, 299, 282, 298, 297, 296, 295, 294, 290, 289, 288], 'Route_21': [288, 289, 290, 294, 295, 296, 297, 298, 282, 299, 316, 254, 257, 258, 259, 317, 18, 19, 20, 219, 220, 221, 222, 323, 208, 209], 'Route_21_1': [209, 208, 323, 222, 221, 220, 219, 20, 19, 18, 317, 259, 258, 257, 254, 316, 299, 282, 298, 297, 296, 295, 294, 290, 289, 288], 'Route_22': [288, 289, 290, 294, 295, 296, 297, 298, 282, 299, 316, 254, 257, 258, 259, 317, 18, 19, 20, 219, 220, 221, 222, 323, 208, 209], 'Route_22_1': [209, 208, 323, 222, 221, 220, 219, 20, 19, 18, 317, 259, 258, 257, 254, 316, 299, 282, 298, 297, 296, 295, 294, 290, 289, 288], 'Route_23': [288, 289, 290, 294, 295, 296, 297, 298, 282, 299, 316, 254, 257, 258, 259, 317, 18, 19, 20, 219, 220, 221, 222, 323, 208, 209], 'Route_23_1': [209, 208, 323, 222, 221, 220, 219, 20, 19, 18, 317, 259, 258, 257, 254, 316, 299, 282, 298, 297, 296, 295, 294, 290, 289, 288], 'Route_24': [288, 289, 290, 294, 295, 296, 297, 298, 282, 299, 316, 254, 257, 258, 259, 317, 18, 19, 20, 219, 220, 221, 222, 323, 208, 209], 'Route_24_1': [209, 208, 323, 222, 221, 220, 219, 20, 19, 18, 317, 259, 258, 257, 254, 316, 299, 282, 298, 297, 296, 295, 294, 290, 289, 288], 'Route_25': [209, 208, 323, 222, 221, 220, 219, 38, 19, 20, 128, 129, 130, 146, 147, 148, 149, 150, 168, 169, 170, 171, 172, 173, 174, 175, 176, 177, 178, 179, 180, 181, 182, 183], 'Route_25_1': [183, 182, 181, 180, 179, 178, 177, 176, 175, 174, 173, 172, 171, 170, 169, 168, 150, 149, 148, 147, 146, 130, 129, 128, 20, 19, 38, 219, 220, 221, 222, 323, 208, 209], 'Route_26': [288, 289, 290, 294, 295, 296, 297, 298, 282, 299, 281, 251, 250, 249, 280, 300, 279, 278, 277, 273, 274, 240, 275, 239, 106, 107, 108, 109, 110, 111, 112, 113, 141, 142, 143, 144, 145, 126, 259, 317, 18, 127, 19, 20, 219, 128, 129, 130, 137], 'Route_26_1': [137, 130, 129, 128, 219, 20, 19, 127, 18, 317, 259, 126, 145, 144, 143, 142, 141, 113, 112, 111, 110, 109, 108, 107, 106, 239, 275, 240, 274, 273, 277, 278, 279, 300, 280, 249, 250, 251, 281, 299, 282, 298, 297, 296, 295, 294, 290, 289, 288]}
